param set_len = 54;
param target_sum = 15499520977;
param values := [1] 266150629 [2] 246854378 [3] 897681309 [4] 996706894 [5] 369801205 [6] 102551383 [7] 510049903 [8] 566415945 [9] 495831475 [10] 855067557 [11] 963530388 [12] 58601633 [13] 554626313 [14] 759591978 [15] 779271398 [16] 764477144 [17] 958600804 [18] 453430236 [19] 609689872 [20] 688989614 [21] 795338978 [22] 936508743 [23] 354579594 [24] 989193764 [25] 138719784 [26] 913146396 [27] 258472245 [28] 999845424 [29] 967338685 [30] 312569871 [31] 115216226 [32] 535725578 [33] 961753762 [34] 487779054 [35] 453746514 [36] 717971959 [37] 421643412 [38] 302107835 [39] 124865506 [40] 133297310 [41] 321929065 [42] 160663854 [43] 275835006 [44] 432586039 [45] 191671636 [46] 306330992 [47] 1065164408 [48] 852497133 [49] 218949430 [50] 303416059 [51] 246723293 [52] 974757148 [53] 465353857 [54] 923037246 ;
